=obj= 62
 
xx0 100
x1 1
x2 0
x3 0
x4 0
x5 1
x6 1
x7 1
x8 1
x9 1
x10 1
x11 1
x12 1
x13 1
x14 1
x15 1
x16 1
x17 1
x18 1
x19 0
x20 1
x21 1
x22 1
x23 1
x24 0
x25 1
x26 1
x27 1
x28 0
x29 0
x30 1
x31 1
x32 1
x33 1
x34 1
x35 1
x36 1
x37 1
x38 1
x39 1
x40 1
x41 1
x42 0
x43 0
x44 1
x45 1
x46 1
x47 0
x48 1
x241 1
x242 0
x243 0
x244 1
x245 1
x246 0
x247 1
x248 0
x249 1
x250 0
x251 1
x252 0
x253 1
x254 0
x255 0
x256 0
x257 1
x258 0
x259 0
x260 1
x261 1
x262 0
x263 1
x264 0
x265 1
x266 0
x267 1
x268 0
x269 1
x270 0
x271 0
x272 0
x273 0
x274 0
x275 0
x276 0
x277 0
x278 0
x279 0
x280 0
x281 1
x282 0
x283 1
x284 0
x285 0
x286 1
x287 1
x288 0
x289 0
x290 1
x291 0
x292 1
x293 0
x294 0
x295 0
x296 0
x297 0
x298 0
x299 0
x300 0
x301 0
x302 0
x303 1
x304 0
x305 1
x306 0
x307 0
x308 0.999999999999999
x309 0
x310 0
x311 1
x312 0
x313 0
x314 0
x315 0
x316 1
x317 0
x318 0
x319 0
x320 0
x321 0
x322 0
x323 1
x324 0
x325 0
x326 0
x327 0
x328 1
x329 1
x330 0
x331 0
x332 0
x333 1
x334 0
x335 0
x336 1
x337 1
x338 0
x339 0
x340 0
x341 0
x342 0
x343 0
x344 0
x345 1
x346 0
x347 1
x348 0
x349 0
x350 0
x351 0
x352 0
x353 0
x354 1
x355 0
x356 1
x357 1
x358 0
x359 0
x360 1
x361 0
x362 1
x363 0
x364 1
x365 0
x366 0
x367 1
x368 0
x369 1
x370 0
x371 0
x372 0
x373 0
x374 0
x375 1
x376 0
x377 1
x378 0
x379 1
x380 0
x381 0
x382 0
x383 1
x384 1
x385 0
x386 1
x387 0
x388 0
x389 1
x390 1
x391 0
x392 1
x393 0
x394 1
x395 0
x396 1
x397 0
x398 0
x399 0
x400 0
x401 1
x402 0
x403 1
x404 0
x405 1
x406 0
x407 1
x408 1
x409 0
x410 1
x411 0
x412 1
x413 0
x414 0
x415 1
x416 1
x417 0
x418 1
x419 0
x420 0
x421 0
x422 1
x423 0
x424 1
x425 1
x426 0
x427 1
x428 0
x429 1
x430 0
x431 0
x432 1
x433 1
x434 0
x435 1
x436 0
x437 0
x438 0
x439 0
x440 1
x441 1
x442 0
x443 1
x444 0
x445 0
x446 1
x447 1
x448 0
x449 0
x450 1
x451 1
x452 0
x453 1
x454 0
x455 1
x456 0
x457 1
x458 0
x459 1
x460 0
x461 0
x462 1
x463 1
x464 0
x465 1
x466 0
x467 0
x468 1
x469 1
x470 0
x471 0
x472 1
x473 1
x474 0
x475 1
x476 0
x477 1
x478 0
x479 0
x480 1
x481 1
x482 0
x483 0
x484 0
x485 0
x486 0
x487 0
x488 1
x489 1
x490 0
x491 0
x492 1
x493 0
x494 0
x495 0
x496 0
x497 0
x498 0
x499 0
x500 0
x501 0
x502 1
x503 0
x504 1
x505 0
x506 0
x507 1
x508 1
x509 0
x510 1
x511 0
x512 0
x513 1
x514 0
x515 1
x516 0
x517 1
x518 1
x519 0
x520 0
x521 1
x522 1
x523 0
x524 0
x525 1
x526 1
x527 0
x528 0
x529 0
x530 0
x531 0
x532 1
x533 0
x534 1
x535 0
x536 1
x537 0
x538 0
x539 1
x540 0
x541 0
x542 1
x543 0
x544 0
x545 0
x546 1
x547 0
x548 0
x549 1
x550 1
x551 0
x552 0
x553 1
x554 1
x555 0
x556 1
x557 0
x558 0
x559 1
x560 0
x561 0
x562 0
x563 1
x564 0
x565 1
x566 0
x567 0
x568 1
x569 1
x570 0.999999903742962
x571 0
x572 1
x573 0
x574 1
x575 1
x576 0
x577 1
x578 0
x579 1
x580 0
x581 0
x582 0
x583 0
x584 0
x585 1
x586 1
x587 0
x588 0
x589 1
x590 0
x591 1
x592 0
x593 0
x594 0
x595 0
x596 0
x597 0
x598 0
x599 0
x600 0
x601 0
x602 0
x603 1
x604 0
x605 0
x606 1
x607 1
x608 0
x609 0
x610 0
x611 0
x612 1
x613 0
x614 0
x615 0
x616 0
x617 0
x618 0
x619 1
x620 0
x621 0
x622 1
x623 0
x624 1
x625 0
x626 1
x627 1
x628 0
x629 0
x630 1
x631 0
x632 1
x633 1
x634 0
x635 1
x636 0
x637 0
x638 1
x639 0
x640 0
x641 0
x642 0
x643 0
x644 0
x645 0
x646 1
x647 0
x648 1
x649 0
x650 0
x651 1
x652 0
x653 0
x654 1
x655 1
x656 0
x657 0
x658 1
x659 0
x660 1
x661 0
x662 1
x663 1
x664 0
x665 0
x666 1
x667 0
x668 0
x669 1
x670 0
x671 0
x672 1
x673 1
x674 0
x675 1
x676 0
x677 0
x678 1
x679 1
x680 0
x681 1
x682 0
x683 0
x684 1
x685 0
x686 1
x687 0
x688 1
x689 0
x690 1
x691 0
x692 0
x693 1
x694 1
x695 0
x696 1
x697 0
x698 1
x699 0
x700 0
x701 0
x702 0
x703 0
x704 0
x705 0
x706 0
x707 1
x708 0
x709 1
x710 0
x711 0
x712 0
x713 1
x714 1
x715 0
x716 0
x717 0
x718 0
x719 0
x720 1
x721 0
x722 0
x723 1
x724 0
x725 1
x726 0
x727 0
x728 1
x729 0
x730 1
x731 1
x732 0
x733 0
x734 1
x735 1
x736 0
x737 1
x738 0
x739 0
x740 1
x741 0
x742 1
x743 1
x744 0
x745 1
x746 0
x747 1
x748 0
x749 1
x750 0
x751 1
x752 0
x753 0
x754 1
x755 1
x756 0
x757 0
x758 1
x759 0
x760 0
x761 1
x762 0
x763 1
x764 0
x765 0
x766 1
x767 0
x768 1
x769 0
x770 0
x771 1
x772 1
x773 0
x774 1
x775 0
x776 0
x777 1
x778 0
x779 1
x780 0
x781 1
x782 0
x783 1
x784 0
x785 0
x786 0
x787 0
x788 0
x789 0
x790 0
x791 0
x792 0
x793 0
x794 1
x49 1
x50 0
x51 0
x52 0
x53 0
x54 0
x55 0
x56 0
x57 0
x58 0
x59 0
x60 0
x61 0
x62 0
x63 0
x64 1
x65 0
x66 0
x67 0
x68 1
x69 0
x70 1
x71 0
x72 0
x73 0
x74 1
x75 0
x76 0
x77 0
x78 0
x79 0
x80 1
x81 0
x82 1
x83 0
x84 0
x85 0
x86 0
x87 0
x88 1
x89 0
x90 1
x91 0
x92 0
x93 0
x94 1
x95 0
x96 0
x97 0
x98 1
x99 0
x100 0
x101 0
x102 1
x103 0
x104 0
x105 1
x106 0
x107 0
x108 0
x109 0
x110 0
x111 1
x112 0
x113 9.6257037673908e-08
x114 0
x115 0
x116 0.999999903742962
x117 0.999999999999999
x118 0
x119 0
x120 0
x121 0.999999999999998
x122 0
x123 0
x124 0
x125 1
x126 0
x127 0
x128 0
x129 1
x130 0
x131 0
x132 0
x133 1
x134 0
x135 0
x136 0
x137 1
x138 0
x139 0
x140 0
x141 0
x142 0
x143 0
x144 0
x145 0
x146 0
x147 0
x148 1
x149 0
x150 1
x151 0
x152 0
x153 0
x154 0
x155 1
x156 0
x157 0
x158 0
x159 0
x160 1
x161 0
x162 0
x163 0
x164 0
x165 0
x166 0
x167 -2.58690846521858e-11
x168 1
x169 0
x170 0
x171 1
x172 0
x173 0
x174 1
x175 0
x176 0
x177 1
x178 0
x179 0
x180 0
x181 1
x182 0
x183 0
x184 0
x185 0
x186 1
x187 0
x188 0
x189 1
x190 0
x191 0
x192 0
x193 0
x194 0
x195 0
x196 1
x197 0
x198 0
x199 0
x200 1
x201 0
x202 1
x203 0
x204 0
x205 0
x206 0
x207 1
x208 0
x209 0
x210 0
x211 0
x212 1
x213 0
x214 1
x215 0
x216 0
x217 0
x218 1
x219 0
x220 0
x221 1
x222 0
x223 0
x224 0
x225 0
x226 0
x227 0
x228 1
x229 1
x230 0
x231 0
x232 0
x233 0
x234 0
x235 1
x236 0
x237 0
x238 1
x239 0
x240 0
x797 449.999999999767
x798 361.999999999767
x799 29.9999999997672
x800 21.9999999997672
x795 361.999999999767
x796 29.9999999997672
x803 351.999999999767
x804 279.999999999767
x805 46.9999999997672
x806 38.9999999997672
x801 351.999999999767
x802 38.9999999997672
x809 158.999999999767
x810 95.9999999997671
x811 90.9999999997671
x812 82.9999999997671
x807 126.999999999767
x808 82.9999999997672
x815 140.999999999767
x816 76.9999999997672
x817 76.9999999997672
x818 68.9999999997672
x813 140.999999999767
x814 76.9999999997672
x821 227.999999999767
x822 139.999999999767
x823 73.9999999997672
x824 65.9999999997672
x819 188.999999999767
x820 73.9999999997672
x827 95.9999999997672
x828 42.9999999997672
x829 87.9999999997672
x830 79.9999999997672
x825 95.9999999997672
x826 84.9999999997672
x833 73.9999999997672
x834 7.99999999976717
x835 69.0000008660805
x836 61.0000008660805
x831 73.9999999997672
x832 62.9999999997672
x839 136.999999999767
x840 0
x841 39.9999999997672
x842 30.9999999997672
x837 53.9999999997672
x838 39.9999999997672
x845 306.999999999767
x846 273.999999999767
x847 30.9999999997672
x848 22.9999999997672
x843 306.999999999767
x844 28.9999999997672
x851 376.999999999767
x852 330.999999999767
x853 75.9999999997672
x854 67.9999999997672
x849 362.999999999767
x850 75.9999999997672
x857 124.999999999767
x858 -2.3283064365387e-10
x859 95.9999999997672
x860 87.9999999997672
x855 124.999999999767
x856 91.9999999997672
x863 349.999999999767
x864 251.999999999767
x865 40.9999999997672
x866 32.9999999997672
x861 349.999999999767
x862 32.9999999997672
x869 289.999999999767
x870 243.999999999767
x871 48.9999999997672
x872 40.9999999997672
x867 289.999999999767
x868 42.9999999997672
x875 356.999999999767
x876 308.999999999767
x877 48.9999999997672
x878 40.9999999997672
x873 356.999999999767
x874 42.9999999997672
x881 199.999999999767
x882 103.999999999767
x883 122.999999999767
x884 113.999999999767
x879 103.999999999767
x880 122.999999999767
x887 137.999999999767
x888 70.9999999997672
x889 103.999999999767
x890 95.9999999997672
x885 96.9999999997672
x886 95.9999999997672
x893 137
x894 33
x895 77.0000008660805
x896 69.0000008660805
x891 136.999999999767
x892 76.9999999997672
x899 477.999999999767
x900 354.999999999767
x901 40.9999999997672
x902 32.9999999997672
x897 354.999999999767
x898 34.9999999997672
x905 425.999999999767
x906 356.999999999767
x907 48.9999999997672
x908 40.9999999997672
x903 356.999999999767
x904 42.9999999997672
x911 84.9999999997672
x912 18.9999999997672
x913 136.999999999767
x914 127.999999999767
x909 18.9999999997672
x910 127.999999999767
x917 178.999999999767
x918 119.999999999767
x919 111.999999999767
x920 103.999999999767
x915 119.999999999767
x916 103.999999999767
x923 448.999999999767
x924 376.999999999767
x925 72.9999999997672
x926 64.9999999997672
x921 376.999999999767
x922 67.9999999997672
x929 263.999999999767
x930 202.999999999767
x931 103.999999999767
x932 95.9999999997672
x927 202.999999999767
x928 96.9999999997672
x935 187.999999999767
x936 68.9999999997671
x937 84.9999999997672
x938 76.9999999997672
x933 127.999999999767
x934 76.9999999997672
x941 163.999999999767
x942 95.9999999997672
x943 85.9999999997672
x944 77.9999999997672
x939 123.999999999767
x940 85.9999999997672
x947 354.999999999767
x948 271.999999999767
x949 57.9999999997672
x950 49.9999999997672
x945 354.999999999767
x946 49.9999999997672
x953 294.999999999767
x954 199.999999999767
x955 95.9999999997672
x956 87.9999999997672
x951 199.999999999767
x952 87.9999999997672
x959 273.999999999767
x960 188.999999999767
x961 73.9999999997672
x962 65.9999999997672
x957 188.999999999767
x958 73.9999999997672
x965 349.999999999767
x966 262.999999999767
x967 38.9999999997672
x968 30.9999999997672
x963 349.999999999767
x964 32.9999999997672
x971 114.999999999767
x972 0
x973 60.9999999997672
x974 51.9999999995343
x969 85.9999999997672
x970 60.9999999997672
x977 250.999999999767
x978 187.999999999767
x979 86.9999999997672
x980 78.9999999997672
x975 190.999999999767
x976 78.9999999997672
x983 212.999999999767
x984 132.999999999767
x985 47.9999999997672
x986 39.9999999997672
x981 212.999999999767
x982 47.9999999997672
x989 437.999999999767
x990 354.999999999767
x991 56.9999999997672
x992 48.9999999997672
x987 354.999999999767
x988 49.9999999997672
x995 420.999999999767
x996 357.999999999767
x997 48.9999999997672
x998 40.9999999997672
x993 357.999999999767
x994 44.9999999997672
x1001 307.999999999767
x1002 212.999999999767
x1003 7.99999999976717
x1004 0
x999 307.999999999767
x1000 0.999999999767169
x1007 312.999999999767
x1008 250.999999999767
x1009 87.9999999997672
x1010 79.9999999997672
x1005 250.999999999767
x1006 86.9999999997672
x1013 304.999999999767
x1014 227.999999999767
x1015 73.9999999997671
x1016 65.9999999997671
x1011 227.999999999767
x1012 73.9999999997672
x1019 261.999999999767
x1020 221.999999999767
x1021 32.9999999997672
x1022 24.9999999997672
x1017 261.999999999767
x1018 32.9999999997672
x1025 193.999999999767
x1026 127.999999999767
x1027 65.9999999997672
x1028 57.9999999997672
x1023 193.999999999767
x1024 62.9999999997672
x1031 70.9999999997672
x1032 -2.3283064365387e-10
x1033 104.999999999767
x1034 96.9999999997672
x1029 59.9999999997672
x1030 96.9999999997672
x1037 67
x1038 0
x1039 117.999999999767
x1040 109.999999999767
x1035 66.9999999997672
x1036 117.999999999767
x1043 351.999999999767
x1044 296.999999999767
x1045 46.9999999997672
x1046 38.9999999997672
x1041 351.999999999767
x1042 38.9999999997672
x1049 351.999999999767
x1050 283.999999999767
x1051 38.9999999997672
x1052 30.9999999997672
x1047 351.999999999767
x1048 38.9999999997672
x1055 440.999999999767
x1056 357.999999999767
x1057 64.9999999997672
x1058 56.9999999997672
x1053 357.999999999767
x1054 60.9999999997672
x1061 343.999999999767
x1062 263.999999999767
x1063 107.999999999767
x1064 98.9999999997672
x1059 321.999999999767
x1060 107.999999999767
x1067 344.999999999767
x1068 231.999999999767
x1069 65.9999999997671
x1070 57.9999999997671
x1065 231.999999999767
x1066 60.9999999997672
x1073 412.999999999767
x1074 354.999999999767
x1075 42.9999999997672
x1076 34.9999999997672
x1071 354.999999999767
x1072 34.9999999997672
x1079 264.999999999767
x1080 184.999999999767
x1081 15.9999999997672
x1082 7.99999999976717
x1077 264.999999999767
x1078 15.9999999997672
